3 15
392 453 421 
0 18 13 29 32 48 50 67 59 15 59 76 31 1
1 50 46 89 80 23 23 87 5 59 54 60 34 1
2 9 12 84 82 48 53 6 59 63 65 36 74 1
3 46 53 103 99 62 54 78 24 12 92 98 99 2
4 99 94 37 36 83 87 72 68 40 36 66 38 2
5 75 75 30 30 69 76 46 55 59 85 34 24 2
6 72 67 93 93 22 20 11 12 42 69 74 27 1
7 84 93 24 32 75 70 30 21 49 71 45 74 1
8 10 7 66 73 30 40 21 7 42 21 50 86 1
9 58 56 1 10 73 65 60 63 29 1 94 78 2
10 1 9 57 56 98 94 18 55 83 98 38 76 3
11 55 45 51 47 65 58 59 14 7 41 28 44 2
12 86 94 41 44 90 87 23 64 63 30 69 90 3
13 47 50 95 96 37 35 13 35 5 76 25 25 1
14 64 70 94 97 32 31 93 49 16 49 17 41 2
